File: D:\ML4VRP2024\Instances\CVRP\json\X-n167-k10.json exists.
Route #1: 44 30 92 55 38 151 153 116 8 114 163 145 1 88 122 111 
Route #2: 121 79 149 4 160 131 109 16 29 2 28 32 10 84 37 136 
Route #3: 103 152 3 130 143 113 21 158 75 95 59 112 53 72 51 146 39 120 
Route #4: 5 86 46 15 159 17 96 14 156 115 97 148 129 57 77 13 12 104 
Route #5: 89 6 7 157 93 25 73 22 69 83 137 118 47 126 127 155 56 106 
Route #6: 67 9 48 68 162 62 123 35 26 165 78 138 41 74 33 166 94 
Route #7: 42 54 76 23 154 132 60 71 142 19 50 31 24 133 70 141 11 82 
Route #8: 99 87 144 18 139 27 108 102 100 40 
Route #9: 134 119 140 52 128 85 125 66 43 117 147 49 64 107 91 161 90 20 
Route #10: 63 124 80 105 36 101 110 34 164 65 81 45 98 150 135 58 61 
